Monolayer_MoSe2
   1.00000000000000
 3.1245499999999997   0.0000000000000000   0.0000000000000000
-1.5622749999999999   2.7059396753946676   0.0000000000000000
 0.0000000000000000   0.0000000000000000  19.4081959578671537
   Mo   Se
    1    2
Direct
 0.3333329999999820  0.6666670000000038   0.1567272576887007
 0.6666670000000038  0.3333329999999820   0.2466214378050253
 0.6666670000000038  0.3333329999999820   0.0668330728884641
