Monolayer_MoSe2
   1.00000000000000
 3.4534500000000006   0.0000000000000000   0.0000000000000000
-1.7267250000000003   2.9907754306993692   0.0000000000000000
 0.0000000000000000   0.0000000000000000  19.4081959578671537
   Mo   Se
    1    2
Direct
 0.3333329999999820  0.6666670000000038   0.1567272576887007
 0.6666670000000038  0.3333329999999820   0.2406264083262570
 0.6666670000000038  0.3333329999999820   0.0728281023672324
