POSCAR
1.0
3.1600000000000001   0.0000000000000000   0.0000000000000000
-1.5800000000000001   2.7366402759588255   0.0000000000000000
 0.0000000000000000   0.0000000000000000  27.1657867887770195
 Mo S
 1 2
 Direct
0.333333  0.666666  0.1126639763609987
0.666666  0.333333  0.1705388662450946
0.666666  0.333333  0.0547905785037568
