MoTe2_prime_monolayer
   1.00000000000000
 3.4843490103004533   0.0000000000000000   0.0000000000000000
 0.0000000000000000   6.3514351152532846   0.0000000000000000
 0.0000000000000000   0.0000000000000000  20.1451492056119186
   Mo1 Mo2  Te1 Te2 Te3 Te4
    1 1 1 1 1 1
Direct
 0.0000370339234812  0.7284965100486728   0.5047506766007617
 0.5000334472256760  0.0917245289954272   0.4952314161709578
 0.0000268418003220  0.3393336076418776   0.5732552149936868
 0.5000663253768411  0.4808514105037060   0.4267511061385121
 0.5000313509509448  0.8307542537718364   0.6027096405675352
 0.0000297288220232  0.9895110885722996   0.3972564563788692
