Solid FCC Neon
   1.00000000000000
 4.4636800000000000   0.0000000000000000   0.0000000000000000
 0.0000000000000000   4.4636800000000000   0.0000000000000000
 0.0000000000000000   0.0000000000000000   4.4636800000000000
   Ne
   4
Direct
 0.0 0.0 0.0
 0.5 0.5 0.0
 0.5 0.0 0.5
 0.0 0.5 0.5