Monolayer_MoSe2
   1.00000000000000
 3.2890000000000001   0.0000000000000000   0.0000000000000000
-1.6445000000000001   2.8483575530470184   0.0000000000000000
 0.0000000000000000   0.0000000000000000  19.4081959578671537
   Mo   Se
    1    2
Direct
 0.3333329999999820  0.6666670000000038   0.1567272576887007
 0.6666670000000038  0.3333329999999820   0.2434101321196280
 0.6666670000000038  0.3333329999999820   0.0700443785738614
