POSCAR file written by OVITO Basic 3.7.11
1
14.4551229618 0.0 0.0
0.0 14.4551229618 0.0
0.0 0.0 14.4551229618
Si O
64 128
Direct
0.0286805 0.0532831 0.121312
0.465512 0.0838631 0.0301164
0.824621 0.0731967 0.123356
0.797798 0.286373 0.122762
0.519835 0.492463 0.100653
0.857308 0.54581 0.146206
0.348462 0.865832 0.0994835
0.842536 0.757412 0.0774143
0.495143 0.189855 0.220863
0.624413 0.36167 0.234217
0.371177 0.535215 0.236761
0.232411 0.689133 0.170768
0.669639 0.642788 0.17957
0.0452042 0.760965 0.265322
0.900213 0.920049 0.211975
0.649144 0.0436403 0.271207
0.827922 0.0199354 0.39213
0.887957 0.224463 0.435287
0.147036 0.318362 0.339061
0.346618 0.324539 0.300478
0.949395 0.405556 0.308204
0.385684 0.62322 0.430571
0.924513 0.61241 0.380774
0.571398 0.727851 0.371411
0.102337 0.972888 0.313293
0.285525 0.932309 0.417849
0.469676 0.9 0.289917
0.0804559 0.136316 0.442126
0.198317 0.395324 0.537429
0.611316 0.411949 0.451087
0.401737 0.415573 0.493389
0.984081 0.733406 0.554785
0.726686 0.604557 0.469884
0.211796 0.750506 0.510645
0.974548 0.943196 0.552836
0.182331 0.0235143 0.58147
0.824497 0.183565 0.646773
0.681153 0.331745 0.647079
0.0593492 0.482543 0.680579
0.864348 0.577686 0.647273
0.365209 0.778885 0.665093
0.00349875 0.155334 0.780876
0.269138 0.0183204 0.777966
0.62533 0.12368 0.705625
0.152992 0.303318 0.718917
0.293182 0.412216 0.826522
0.719691 0.487302 0.801809
0.119012 0.621175 0.850899
0.338532 0.619093 0.811281
0.47951 0.955027 0.735016
0.700448 0.915716 0.757049
0.917829 0.954901 0.772229
0.809588 0.0866602 0.909846
0.0768921 0.215681 0.983343
0.294046 0.17626 0.939146
0.617284 0.202688 0.904816
0.0779913 0.409958 0.880835
0.44995 0.334877 0.956866
0.866295 0.424474 0.969808
0.543009 0.571524 0.895923
0.0163819 0.811139 0.927542
0.670444 0.767697 0.921075
0.183948 0.950229 0.978644
0.498958 0.892196 0.947564
0.552831 0.145406 0.9847
0.809649 0.0474953 0.0128204
0.0169009 0.158239 0.0619299
0.835265 0.183819 0.146515
0.466582 0.403473 0.0483134
0.835933 0.334623 0.0338772
0.434052 0.548607 0.144817
0.871404 0.508541 0.0398071
0.601812 0.579588 0.1145
0.882466 0.655723 0.12663
0.286012 0.771072 0.117166
0.411674 0.850064 0.00685605
0.831939 0.845256 0.153814
0.737882 0.729609 0.130073
0.0978024 0.017214 0.036226
0.267423 0.93578 0.05588
0.511411 0.982123 0.0167804
0.0900351 0.0197334 0.207119
0.460267 0.121906 0.134903
0.722245 0.0366493 0.18247
0.923525 0.0197159 0.147812
0.550734 0.28401 0.197041
0.0521235 0.366451 0.283571
0.239665 0.315806 0.272158
0.376802 0.424362 0.252303
0.730981 0.341379 0.194492
0.584012 0.454058 0.190614
0.745252 0.554039 0.184339
0.895243 0.460335 0.215923
0.137646 0.701438 0.237139
0.285134 0.585374 0.185567
0.622109 0.659264 0.279446
0.983815 0.846656 0.21036
0.396186 0.895459 0.195907
0.56911 0.959495 0.250863
0.0560196 0.0371471 0.393155
0.578795 0.131607 0.266147
0.713066 0.0299709 0.361975
0.842512 0.136041 0.380089
0.133719 0.209372 0.370923
0.403026 0.229374 0.274
0.17251 0.39085 0.424617
0.370671 0.345887 0.407121
0.611648 0.357017 0.351396
0.898155 0.323388 0.375965
0.961008 0.504065 0.37613
0.396782 0.594909 0.325313
0.47744 0.694425 0.420849
0.813877 0.621901 0.400937
0.966348 0.67524 0.294781
0.536908 0.817485 0.315116
0.0742411 0.865954 0.319764
0.213659 0.969125 0.33565
0.390559 0.937739 0.367331
0.858294 0.933832 0.31577
0.144089 0.115642 0.530839
0.995318 0.209253 0.448132
0.833053 0.222952 0.540858
0.510983 0.387619 0.495449
0.673834 0.367189 0.537896
0.308317 0.415837 0.552228
0.399238 0.527091 0.490117
0.671451 0.508899 0.443579
0.102821 0.72602 0.562823
0.280898 0.673562 0.469272
0.654414 0.694744 0.44935
0.776517 0.582637 0.573097
0.961865 0.698835 0.445686
0.248301 0.826039 0.430327
0.952442 0.838566 0.550219
0.267181 0.986183 0.511318
0.896911 0.0037314 0.488261
0.19145 0.0246849 0.696996
0.734448 0.119655 0.667024
0.626345 0.235297 0.661257
0.776508 0.285791 0.66918
0.16676 0.312462 0.610336
0.130568 0.470978 0.590901
0.946731 0.494812 0.646226
0.929815 0.672166 0.633568
0.283219 0.804376 0.587391
0.0878769 0.952158 0.547536
0.437605 0.862303 0.679871
0.933551 0.960526 0.660264
0.283777 0.12372 0.830454
0.529571 0.0540746 0.695688
0.676673 0.0275442 0.769611
0.837321 0.0175102 0.828262
0.994659 0.0421983 0.776336
0.0988514 0.205775 0.744123
0.577262 0.163684 0.803421
0.920202 0.178517 0.709984
0.0896215 0.39781 0.76484
0.251318 0.323382 0.773902
0.671055 0.398823 0.739188
0.309218 0.512197 0.780867
0.613852 0.52972 0.819869
0.802937 0.552082 0.747657
0.0972983 0.57136 0.740099
0.234694 0.627939 0.852515
0.373941 0.681832 0.721555
0.431606 0.597224 0.875688
0.0483573 0.699175 0.884413
0.377045 0.00193694 0.733039
0.473207 0.945948 0.846759
0.594806 0.92028 0.71116
0.808731 0.914386 0.733248
0.955255 0.864772 0.839915
0.367881 0.0957336 0.969788
0.0152164 0.173236 0.890978
0.185581 0.178887 0.978051
0.354781 0.275196 0.969974
0.724997 0.161729 0.894916
0.0674954 0.328097 0.962838
0.19324 0.413678 0.886099
0.395672 0.395866 0.882306
0.56068 0.296916 0.930695
0.10088 0.52185 0.905129
0.541822 0.506603 0.98556
0.774187 0.465315 0.90116
0.960455 0.400819 0.899618
0.601168 0.671424 0.897077
0.107536 0.861609 0.967464
0.596185 0.841013 0.96808
0.698173 0.82809 0.82965
0.762889 0.764113 0.986716
0.924667 0.779807 0.994859
0.244796 0.965218 0.881703
