Solid FCC Xe
   1.00000000000000
 5.33680329744   0.0000000000000000   0.0000000000000000
 0.0000000000000000   5.33680329744   0.0000000000000000
 0.0000000000000000   0.0000000000000000   5.33680329744
   Xe
   4
Direct
 0.0 0.0 0.0
 0.5 0.5 0.0
 0.5 0.0 0.5
 0.0 0.5 0.5