MoTe2_prime_monolayer
   1.00000000000000
 3.3101315597854306   0.0000000000000000   0.0000000000000000
 0.0000000000000000   6.0338633594906197   0.0000000000000000
 0.0000000000000000   0.0000000000000000  20.1451492056119186
   Mo1 Mo2 Te1 Te2 Te3 Te4
    1 1 1 1 1 1
Direct
 0.0000381355469152  0.7283798768267536   0.5046563149824952
 0.5000381568524505  0.0918459953287336   0.4953298802715951
 0.0000364282921276  0.3391253375558116   0.5797922829119515
 0.5000372808235932  0.4811025453038568   0.4201876742527678
 0.5000385731733460  0.8335506944676588   0.6059021477890955
 0.0000378378129552  0.9866671215091020   0.3940862130378171
