MoTe2_prime_monolayer
   1.00000000000000
 3.6585664608154760   0.0000000000000000   0.0000000000000000
 0.0000000000000000   6.6690068710159496   0.0000000000000000
 0.0000000000000000   0.0000000000000000  20.1451492056119186
   Mo1 Mo2 Te1 Te2 Te3 Te4
    1 1 1 1 1 1
Direct
 0.0000377017213624  0.7294916643016988   0.5052206587602335
 0.5000375573507873  0.0907308220913780   0.4947630713640926
 0.0000377283053820  0.3370868287958500   0.5692876277276736
 0.5000377568215844  0.4831318232239248   0.4307000583892153
 0.5000376582248712  0.8320666488031924   0.5998022356006720
 0.0000376999523612  0.9881636698992812   0.4001808390141222
